nApps = 201
nRes = 9
nActs = 412
nNetworks = 6

assignmentToResources = [1,2,1,3,2,2,3,1,2,1,2,2,1,1,1,1,2,2,2,3,1,1,2,2,2,3,3,1,3,2,3,3,3,2,3,2,3,2,2,3,3,2,3,3,3,2,3,3,3,1,1,3,2,3,1,2,1,2,1,3,3,2,3,3,1,2,2,1,2,2,2,1,3,2,2,2,3,1,2,1,2,2,2,2,2,2,3,2,3,2,3,1,2,3,2,2,3,1,1,2,4,5,5,5,4,4,6,6,5,5,5,5,5,6,6,4,5,4,4,5,4,4,4,4,4,4,4,5,5,6,4,5,5,5,6,4,4,6,5,5,5,6,6,6,6,6,6,5,5,5,6,5,6,6,6,5,5,5,5,5,6,6,6,6,5,6,6,6,6,6,6,5,5,6,6,6,6,6,6,6,6,6,6,6,6,6,5,5,4,4,4,5,5,4,4,6,6,6,6,4,4,5,4,4,4,5,5,4,4,6,6,5,5,5,6,4,4,5,5,5,5,5,6,6,6,4,5,5,6,6,5,4,4,5,7,6,8,4,8,6,7,5,9,6,7,5,9,5,7,4,8,4,9,5,7,4,8,4,8,6,8,5,9,5,7,4,8,5,7,4,8,5,9,5,9,6,7,4,8,8,7,9,7,9,9,7,7,9,7,9,7,7,7,7,8,7,9,8,9,9,8,9,9,8,8,8,9,9,8,9,9,9,9,8,8,8,8,7,9,9,8,7,8,8,7,7,9,9,9,8,7,7,7,7,9,9,9,9,9,7,7,8,8,7,7,8,7,8,8,8,9,7,8,8,7,7,8,8,8,8,8,8,7,8,8,9,9,9,9,9,9,9,8,8,8,8,8,8,8,9,7,8,8,9,9,9,8,9,8,8,7,9,9,8,8,8,7,7,7,7,9,8,8,8,9,9,9,8,8,7,8,8];

processingTimes = [88,88,128,80,112,72,104,112,96,64,112,136,136,144,128,136,128,128,128,80,136,48,96,104,128,144,40,160,136,48,168,112,48,72,128,128,104,96,104,104,80,120,56,120,72,120,56,88,72,96,112,136,136,160,48,96,88,112,128,48,112,136,128,112,136,160,152,112,136,104,128,152,136,120,168,80,160,144,88,128,64,56,136,120,128,120,128,40,128,160,152,104,104,144,128,104,104,128,64,136,4,4,500,4,3,3,500,4,4,4,4,3,500,4,100,13,3,5,4,4,3,3,4,8,8,500,500,4,8,4,4,13,4,3,500,4,500,4,500,4,23,10,4,5,500,500,500,3,4,13,3,500,500,3,3,500,4,4,3,3,500,4,4,5,500,4,4,3,5,13,13,4,4,13,500,4,5,3,500,5,5,8,5,4,4,4,5,3,3,5,500,5,5,3,3,4,4,3,500,3,4,3,4,3,100,5,5,13,500,4,500,4,4,3,500,5,3,4,4,3,3,3,3,8,4,500,4,23,3,3,500,5,5,500,500,500,500,500,500,500,500,500,500,500,500,500,500,500,500,500,500,4,4,5,5,3,3,4,4,5,5,4,4,5,5,13,13,4,4,13,13,3,3,3,3,4,4,8,8,4,4,500,4,3,3,500,4,4,4,4,3,500,4,100,13,3,5,4,4,3,3,4,8,8,500,500,4,8,4,4,13,4,3,500,4,500,4,500,4,23,10,4,5,500,500,500,3,4,13,3,500,500,3,3,500,4,4,3,3,500,4,4,5,500,4,4,3,5,13,13,4,4,13,500,4,5,3,500,5,5,8,5,4,4,4,5,3,3,5,500,5,5,3,3,4,4,3,500,3,4,3,4,3,100,5,5,13,500,4,500,4,4,3,500,5,3,4,4,3,3,3,3,8,4,500,4,23,3,3,500,5,5];

periods = [10000,50000,100000,10000,100000,10000,1000,10000,10000,1000,10000,2000,20000,50000,20000,5000,100000,100000,10000,20000,10000,1000,100000,100000,20000,10000,10000,100000,10000,10000,50000,10000,100000,20000,10000,20000,10000,100000,10000,20000,10000,10000,100000,100000,10000,10000,20000,20000,100000,20000,50000,20000,10000,20000,100000,100000,20000,20000,20000,100000,20000,20000,10000,10000,100000,20000,20000,1000,20000,10000,50000,100000,100000,20000,100000,10000,10000,10000,100000,10000,100000,100000,20000,10000,20000,20000,20000,20000,50000,10000,50000,10000,10000,1000,100000,100000,10000,20000,20000,10000,10000,50000,50000,50000,100000,100000,10000,10000,100000,100000,10000,10000,10000,1000,1000,10000,10000,1000,1000,10000,20000,20000,50000,50000,20000,20000,5000,100000,10000,20000,10000,100000,100000,20000,10000,100000,100000,10000,10000,10000,10000,50000,50000,10000,10000,100000,100000,20000,20000,20000,10000,20000,10000,10000,10000,100000,10000,10000,10000,10000,20000,20000,20000,10000,10000,100000,100000,100000,10000,10000,10000,10000,10000,20000,20000,20000,20000,20000,100000,100000,100000,20000,20000,20000,20000,20000,100000,100000,20000,20000,20000,20000,20000,20000,20000,20000,20000,20000,10000,100000,100000,20000,1000,1000,1000,10000,50000,100000,100000,100000,100000,20000,100000,100000,10000,10000,10000,100000,10000,20000,20000,20000,20000,50000,50000,10000,10000,10000,1000,1000,100000,20000,20000,10000,10000,10000,10000,10000,10000,10000,10000,10000,10000,10000,10000,10000,10000,10000,10000,10000,10000,10000,10000,10000,10000,20000,20000,20000,20000,20000,20000,20000,20000,20000,20000,100000,100000,100000,100000,100000,100000,100000,100000,20000,20000,10000,10000,10000,10000,10000,50000,50000,50000,100000,100000,10000,10000,100000,100000,10000,10000,10000,1000,1000,10000,10000,1000,1000,10000,20000,20000,50000,50000,20000,20000,5000,100000,10000,20000,10000,100000,100000,20000,10000,100000,100000,10000,10000,10000,10000,50000,50000,10000,10000,100000,100000,20000,20000,20000,10000,20000,10000,10000,10000,100000,10000,10000,10000,10000,20000,20000,20000,10000,10000,100000,100000,100000,10000,10000,10000,10000,10000,20000,20000,20000,20000,20000,100000,100000,100000,20000,20000,20000,20000,20000,100000,100000,20000,20000,20000,20000,20000,20000,20000,20000,20000,20000,10000,100000,100000,20000,1000,1000,1000,10000,50000,100000,100000,100000,100000,20000,100000,100000,10000,10000,10000,100000,10000,20000,20000,20000,20000,50000,50000,10000,10000,10000,1000,1000,100000,20000,20000];

assignmentToClusters = [1,2,3,4,5,1,6,1,7,8,9,10,11,12,13,14,15,15,16,17,18,19,15,20,21,4,22,15,1,18,23,1,15,24,25,26,1,27,28,29,30,31,32,33,34,35,36,13,37,13,38,39,1,13,40,15,41,42,43,44,45,46,47,18,48,13,17,49,50,4,51,15,52,13,53,1,54,1,15,1,55,56,57,1,58,59,60,61,62,63,64,4,1,65,66,67,1,13,13,68,69,70,71,72,73,74,75,76,77,78,79,80,81,82,83,84,85,86,87,88,89,90,91,92,93,94,95,96,97,98,99,100,101,102,103,104,105,106,107,108,109,110,111,112,113,114,115,116,117,118,119,120,121,122,123,124,125,126,127,128,129,130,131,132,133,134,135,136,137,138,139,140,141,142,143,144,145,146,147,148,149,150,151,152,153,154,155,156,157,158,159,160,161,162,163,164,165,166,167,168,169,170,171,172,173,174,175,176,177,178,179,180,181,182,183,184,185,186,187,188,189,190,191,192,193,194,195,196,197,198,199,200,201,1,1,1,1,1,1,1,1,1,1,1,1,1,1,1,1,1,1,4,4,4,4,13,13,13,13,13,13,13,13,13,13,15,15,15,15,15,15,15,15,17,17,18,18,18,18,69,70,71,72,73,74,75,76,77,78,79,80,81,82,83,84,85,86,87,88,89,90,91,92,93,94,95,96,97,98,99,100,101,102,103,104,105,106,107,108,109,110,111,112,113,114,115,116,117,118,119,120,121,122,123,124,125,126,127,128,129,130,131,132,133,134,135,136,137,138,139,140,141,142,143,144,145,146,147,148,149,150,151,152,153,154,155,156,157,158,159,160,161,162,163,164,165,166,167,168,169,170,171,172,173,174,175,176,177,178,179,180,181,182,183,184,185,186,187,188,189,190,191,192,193,194,195,196,197,198,199,200,201];

precedenceAdjList = [[234],[],[],[252],[],[52,236],[],[248],[],[],[],[],[],[],[],[],[78,17],[270],[],[274],[276],[],[266],[],[],[3],[],[268],[],[278],[],[36],[272],[],[],[],[246],[],[],[],[],[],[],[],[],[],[],[],[],[264],[],[],[238],[262],[],[],[],[],[],[],[],[],[],[],[],[73,260],[],[],[],[],[],[],[],[256,258],[],[250],[],[244],[22],[77,240],[],[],[],[],[],[],[],[],[],[],[],[254],[],[],[],[],[242],[],[97],[],[],[],[],[],[],[],[],[],[],[],[],[],[],[],[],[],[],[],[],[],[],[],[],[],[],[],[],[],[],[],[],[],[],[],[],[],[],[],[],[],[],[],[],[],[],[],[],[],[],[],[],[],[],[],[],[],[],[],[],[],[],[],[],[],[],[],[],[],[],[],[],[],[],[],[],[],[],[],[],[],[],[],[],[],[],[],[],[],[],[],[],[],[],[],[],[],[],[],[],[],[],[],[],[],[],[],[],[],[],[],[],[],[],[],[],[],[],[],[],[],[],[],[],[],[],[],[],[],[],[],[],[],[],[5],[233],[28],[235],[79],[237],[96],[239],[83],[241],[36],[243],[92],[245],[5],[247],[0],[249],[91],[251],[69],[253],[98],[255],[14],[257],[47],[259],[65],[261],[65],[263],[27],[265],[55],[267],[71],[269],[16],[271],[66],[273],[63],[275],[20],[277],[100],[101],[102],[103],[104],[105],[106],[107],[108],[109],[110],[111],[112],[113],[114],[115],[116],[117],[118],[119],[120],[121],[122],[123],[124],[125],[126],[127],[128],[129],[130],[131],[132],[133],[134],[135],[136],[137],[138],[139],[140],[141],[142],[143],[144],[145],[146],[147],[148],[149],[150],[151],[152],[153],[154],[155],[156],[157],[158],[159],[160],[161],[162],[163],[164],[165],[166],[167],[168],[169],[170],[171],[172],[173],[174],[175],[176],[177],[178],[179],[180],[181],[182],[183],[184],[185],[186],[187],[188],[189],[190],[191],[192],[193],[194],[195],[196],[197],[198],[199],[200],[201],[202],[203],[204],[205],[206],[207],[208],[209],[210],[211],[212],[213],[214],[215],[216],[217],[218],[219],[220],[221],[222],[223],[224],[225],[226],[227],[228],[229],[230],[231],[232]];